p edge 93 399
e 1 4
e 1 13
e 1 16
e 1 34
e 1 48
e 1 58
e 1 65
e 1 69
e 2 16
e 2 26
e 2 27
e 2 30
e 2 35
e 2 42
e 2 54
e 2 65
e 2 70
e 2 76
e 3 4
e 3 16
e 3 18
e 3 33
e 3 49
e 3 54
e 3 67
e 3 74
e 4 5
e 4 10
e 4 11
e 4 36
e 4 41
e 4 46
e 4 62
e 4 66
e 4 78
e 4 80
e 4 83
e 4 91
e 4 92
e 5 19
e 5 26
e 5 45
e 5 64
e 5 85
e 6 20
e 6 25
e 6 41
e 6 43
e 6 47
e 6 60
e 6 61
e 6 64
e 6 72
e 6 76
e 6 82
e 6 89
e 7 25
e 7 61
e 7 65
e 7 67
e 7 92
e 8 9
e 8 27
e 8 43
e 8 54
e 8 89
e 9 11
e 9 21
e 9 32
e 9 56
e 9 70
e 10 55
e 10 60
e 10 63
e 10 87
e 11 13
e 11 14
e 11 15
e 11 22
e 11 24
e 11 34
e 11 35
e 11 56
e 11 66
e 11 70
e 11 79
e 11 86
e 11 90
e 12 30
e 12 45
e 12 49
e 12 63
e 12 69
e 12 72
e 12 83
e 12 84
e 13 39
e 13 53
e 13 65
e 13 92
e 14 55
e 14 80
e 14 81
e 14 85
e 14 86
e 15 27
e 15 31
e 15 38
e 15 49
e 15 84
e 16 23
e 16 36
e 16 40
e 16 48
e 16 77
e 16 86
e 17 30
e 17 33
e 17 56
e 17 63
e 17 76
e 17 78
e 18 27
e 18 54
e 18 59
e 18 92
e 19 20
e 19 21
e 19 22
e 19 27
e 19 41
e 19 58
e 19 82
e 19 84
e 20 29
e 20 37
e 20 45
e 20 48
e 20 59
e 20 70
e 20 87
e 20 91
e 21 45
e 21 50
e 21 60
e 21 62
e 21 65
e 21 76
e 21 78
e 21 80
e 21 87
e 22 36
e 22 37
e 22 46
e 22 64
e 22 72
e 22 82
e 22 83
e 22 86
e 23 29
e 23 30
e 23 36
e 23 67
e 23 69
e 23 90
e 24 47
e 24 55
e 24 64
e 24 66
e 24 68
e 24 85
e 25 28
e 25 35
e 25 36
e 25 42
e 25 45
e 25 52
e 25 73
e 25 84
e 25 88
e 25 93
e 26 28
e 26 31
e 26 36
e 26 49
e 26 57
e 27 37
e 27 44
e 27 63
e 27 70
e 27 72
e 27 75
e 28 29
e 28 50
e 28 73
e 28 76
e 28 89
e 28 93
e 29 33
e 29 44
e 29 55
e 29 57
e 29 64
e 30 35
e 30 36
e 30 51
e 30 71
e 30 74
e 30 77
e 30 91
e 31 34
e 31 54
e 31 79
e 31 90
e 32 53
e 32 56
e 32 57
e 32 60
e 32 70
e 32 79
e 33 35
e 33 36
e 33 39
e 33 47
e 34 50
e 34 51
e 35 60
e 35 65
e 35 70
e 35 84
e 35 93
e 36 52
e 36 58
e 36 65
e 36 85
e 36 88
e 36 89
e 37 62
e 37 70
e 37 87
e 37 92
e 38 48
e 38 53
e 38 68
e 38 69
e 38 71
e 38 88
e 39 43
e 39 49
e 39 60
e 39 62
e 39 66
e 40 60
e 40 62
e 40 64
e 40 80
e 40 87
e 41 46
e 41 51
e 41 55
e 41 60
e 41 73
e 41 77
e 41 87
e 42 53
e 42 79
e 42 88
e 43 44
e 43 52
e 43 55
e 43 60
e 43 64
e 43 71
e 43 72
e 43 92
e 44 60
e 44 77
e 45 48
e 45 49
e 45 52
e 45 54
e 45 57
e 45 63
e 45 73
e 45 84
e 46 88
e 47 49
e 47 71
e 47 85
e 47 90
e 48 52
e 48 62
e 48 73
e 48 84
e 48 87
e 49 79
e 49 81
e 49 84
e 50 52
e 50 59
e 50 70
e 50 76
e 50 86
e 50 90
e 51 55
e 51 78
e 51 79
e 51 80
e 52 70
e 52 73
e 52 86
e 52 93
e 53 71
e 53 83
e 54 65
e 54 66
e 54 69
e 54 71
e 54 81
e 55 64
e 55 77
e 55 80
e 56 59
e 56 83
e 57 77
e 57 79
e 57 86
e 57 88
e 58 68
e 58 71
e 58 74
e 58 76
e 58 90
e 59 69
e 59 70
e 59 76
e 59 86
e 60 67
e 60 74
e 60 79
e 60 84
e 60 90
e 61 63
e 61 66
e 61 70
e 61 72
e 61 77
e 61 78
e 61 82
e 61 88
e 61 93
e 62 75
e 62 77
e 62 90
e 63 69
e 63 76
e 63 81
e 64 66
e 64 67
e 64 73
e 64 91
e 64 92
e 64 93
e 65 89
e 67 93
e 68 70
e 68 83
e 69 82
e 69 90
e 70 80
e 70 81
e 70 82
e 70 90
e 71 72
e 71 74
e 71 86
e 72 74
e 72 87
e 72 92
e 72 93
e 73 74
e 73 79
e 73 82
e 73 88
e 73 93
e 74 93
e 75 80
e 75 89
e 76 84
e 77 92
e 78 79
e 79 84
e 80 83
e 80 91
e 81 92
e 82 87
e 84 85
e 84 92
e 85 91
